$rem
SCF_ALGORITHM                 diis_gdm
BASIS                         gen
SCF_CONVERGENCE               5
JOBTYPE                       sp
EXCHANGE                      hf
$end

$molecule
0 1
C    -3.54006763    2.82474243    0.00000120
C    -2.37910984    1.82952504    -0.00000385
H    -3.97395812    2.93913923    -1.00744205
H    -3.21519618    3.82424113    0.33432388
H    -4.35085406    2.49943817    0.67310301
H    -1.56832364    2.15482904    -0.67310597
H    -2.70398151    0.83002615    -0.33432561
H    -1.94521902    1.71512882    1.00743939
$end

$basis
H
6-31G
****
C
6-31G
****
$end


