$molecule
0 1
H    0.000000000    -0.120407870    -0.490828400
F    0.000000000    0.009769450    -1.404249780
$end

$rem
BASIS                         sto-3g
JOBTYPE                       sp
EXCHANGE                      hf
$end


